c array.sh: path:     /data/qbf/qbf20/PCNF/c6_BMC_p2_k1024.qdimacs
c array.sh: name:     c6_BMC_p2_k1024
c array.sh: task:     25
c array.sh: host:     c3n13
c array.sh: uname:    Linux c3n13 4.15.0-135-generic #139-Ubuntu SMP Mon Jan 18 17:38:24 UTC 2021 x86_64 x86_64 x86_64 GNU/Linux
c array.sh: start:    Thu Feb 18 09:53:05 CET 2021
c array.sh: noturbo:  1
c array.sh: governor: 32 performance
c array.sh: tmp:      1%
c array.sh: unzipped: /tmp/local-unzipped-18838260-25-c6_BMC_p2_k1024.cnf
*** qbfcert: using tmp directory:
*** qbfcert:   /tmp
trace-size: 10334115
solving-res 20
proof-size: 839823
cert-size: 893939
cert-header: aag 135692 135624 0 4 4
merged-header: p cnf 1112307 2522777
merged-size: 48825290
c ---- [ banner ] ------------------------------------------------------------
c
c KISSAT SAT Solver
c Copyright (c) 2019-2020 Armin Biere JKU Linz
c 
c Version 1.0.3 59813addcacc4d6fb880ebdd63685600475aa940
c gcc (Ubuntu 7.5.0-3ubuntu1~18.04) 7.5.0 -W -Wall -O3 -DNEMBEDDED -DNDEBUG -DNMETRICS -DNSTATISTICS
c Sun Feb 14 23:58:54 CET 2021 Linux cluster3 4.15.0-135-generic x86_64
c
c ---- [ parsing ] -----------------------------------------------------------
c
c opened and reading DIMACS file:
c 
c   /tmp/qbfcert_merged_cnf14554.cnf
c 
c parsed 'p cnf 1112307 2522777' header
c closing input after reading 48825290 bytes (47 MB)
c finished parsing after 0.71 seconds
c
c ---- [ solving ] -----------------------------------------------------------
c
c  seconds  reductions redundant irredundant
c          MB   restarts    trail        variables
c           level  conflicts   glue            remaining
c
c *  0.71 124 0  0  0   1   0 0% 0 2522775 909835 82%
c {  0.71 124 0  0  0   1   0 0% 0 2522775 909835 82%
c }  0.71 124 0  0  0   1   0 0% 0 2522775 909835 82%
c 0  0.71 124 0  0  0   1   0 0% 0 2522775 909835 82%
c
c ---- [ result ] ------------------------------------------------------------
c
s UNSATISFIABLE
c
c ---- [ profiling ] ---------------------------------------------------------
c
c           0.71   99.95 %  parse
c           0.00    0.02 %  search
c           0.00    0.00 %  focused
c           0.00    0.00 %  simplify
c =============================================
c           0.71  100.00 %  total
c
c ---- [ statistics ] --------------------------------------------------------
c
c conflicts:                                1                1.40 per second
c decisions:                                0                0.00 per conflict
c propagations:                         66706            93643    per second
c
c ---- [ resources ] ---------------------------------------------------------
c
c maximum-resident-set-size:        129626112 bytes        124 MB
c process-time:                             0s               0.71 seconds
c
c ---- [ shutting down ] -----------------------------------------------------
c
c exit 20
*** qbfcert: VALID
c array.sh: end:      Thu Feb 18 09:53:07 CET 2021
